
Gurobi 10.0.1 (linux64) logging started Sun Nov 26 16:57:03 2023

Set parameter LogFile to value "ArtificialInstance/ExperimentV2/S4T3K3/AdSp/gurobi91.txt"
Gurobi Optimizer version 10.0.1 build v10.0.1rc0 (linux64)

CPU model: AMD EPYC 7H12 64-Core Processor, instruction set [SSE2|AVX|AVX2]
Thread count: 128 physical cores, 128 logical processors, using up to 32 threads

Academic license 656792 - for non-commercial use only - registered to b.___@student.vu.nl
Optimize a model with 16070 rows, 15630 columns and 59782 nonzeros
Model fingerprint: 0x5072d89a
Variable types: 0 continuous, 15630 integer (15630 binary)
Coefficient statistics:
  Matrix range     [1e+00, 1e+00]
  Objective range  [9e-01, 2e+01]
  Bounds range     [1e+00, 1e+00]
  RHS range        [1e+00, 1e+00]
Presolve removed 4076 rows and 4287 columns
Presolve time: 0.43s
Presolved: 11994 rows, 11343 columns, 44075 nonzeros
Variable types: 0 continuous, 11343 integer (11343 binary)

Root relaxation: objective 7.445521e+01, 10217 iterations, 0.80 seconds (0.50 work units)

    Nodes    |    Current Node    |     Objective Bounds      |     Work
 Expl Unexpl |  Obj  Depth IntInf | Incumbent    BestBd   Gap | It/Node Time

     0     0   74.45521    0  883          -   74.45521      -     -    1s
H    0     0                     104.3968335   75.70134  27.5%     -    2s
     0     0   75.70134    0 1254  104.39683   75.70134  27.5%     -    2s
H    0     0                      78.6162753   75.70134  3.71%     -    2s
     0     0   77.21729    0 1247   78.61628   77.21729  1.78%     -    3s
     0     0   77.21729    0  824   78.61628   77.21729  1.78%     -    3s
     0     0   78.01661    0 1169   78.61628   78.01661  0.76%     -    4s
*    0     0               0      78.1941571   78.19416  0.00%     -    4s

Cutting planes:
  Gomory: 5
  Zero half: 89

Explored 1 nodes (25666 simplex iterations) in 4.60 seconds (2.46 work units)
Thread count was 32 (of 128 available processors)

Solution count 3: 78.1942 78.6163 104.397 

Optimal solution found (tolerance 1.00e-04)
Best objective 7.819415711565e+01, best bound 7.819415711565e+01, gap 0.0000%
